Au  C  O                                
   1.0000000000000000     
     9.1191997043428241    0.0000000000000000    0.0000000000000000
     0.0000000000000000    8.1565040299547604    0.0000000000000000
     0.0000000000000000    0.0000000000000000   29.9999966577582597
   Au   C    O 
    30     2     2
Direct
  0.0148192908501376  0.2640022919739446  0.1601999084093727
  0.9149404897400324  0.5182009662970294  0.0937911153266707
  0.9152944576269959  0.0129573232079649  0.0939196254781629
  0.8164646405560390  0.7653417282595194  0.0264662984764209
  0.8171550889669638  0.2655648590913933  0.0245303143070895
  0.8153740540852626  0.0201243596127565  0.1862049776211983
  0.8167816844069267  0.5081823536871245  0.1856016008043056
  0.7097796550164596  0.7657557379169363  0.1257420849181447
  0.7132259234449830  0.2645115050230327  0.1211960666960798
  0.6230003994780136  0.0149338290278064  0.0577118690441499
  0.6225447236495391  0.5161193917082720  0.0581048673851501
  0.6227391334792105  0.7659466295808245  0.2167804434284384
  0.6160526646740576  0.2647207916601410  0.2126732633222004
  0.5120228999523473  0.7649964884608352  0.0029741555026932
  0.5067238574595010  0.5167845380308227  0.1569640794743032
  0.5122757113927282  0.2662911828327691  0.0026713869166515
  0.2044799019397802  0.0141333434113605  0.1277641940236284
  0.4129508235805490  0.7659344294168565  0.0932317695340379
  0.4127029379616382  0.2629180827562030  0.0927002797812171
  0.3160857564825185  0.0149559884565220  0.0261788236407382
  0.3158186358430733  0.5155358969294993  0.0265206663409084
  0.3071845870312589  0.7632468546329289  0.1853589138423412
  0.3135956955733949  0.2651154137396785  0.1852100414246710
  0.2035892891682996  0.5151815463903464  0.1275835689659110
  0.5066855742992289  0.0105496840215427  0.1586230529606818
  0.1226790207387517  0.7653122309655738  0.0595786572199838
  0.1213910790219178  0.2652223155585092  0.0594344220255354
  0.0133420250671350  0.0143051564028366  0.0037058300086659
  0.0134702728798508  0.5165168907867883  0.0035901786776990
  0.0083655157593116  0.7653889787047734  0.1617920354889971
  0.5726748633533791  0.2509728930322089  0.3162002523446621
  0.6115533882606063  0.7016004798651463  0.2799797530138018
  0.6179361467801541  0.1629318219030555  0.3425605693236008
  0.6102691481201702  0.6358766114058167  0.3140182319971246

  0.00000000E+00  0.00000000E+00  0.00000000E+00
  0.00000000E+00  0.00000000E+00  0.00000000E+00
  0.00000000E+00  0.00000000E+00  0.00000000E+00
  0.00000000E+00  0.00000000E+00  0.00000000E+00
  0.00000000E+00  0.00000000E+00  0.00000000E+00
  0.00000000E+00  0.00000000E+00  0.00000000E+00
  0.00000000E+00  0.00000000E+00  0.00000000E+00
  0.00000000E+00  0.00000000E+00  0.00000000E+00
  0.00000000E+00  0.00000000E+00  0.00000000E+00
  0.00000000E+00  0.00000000E+00  0.00000000E+00
  0.00000000E+00  0.00000000E+00  0.00000000E+00
  0.00000000E+00  0.00000000E+00  0.00000000E+00
  0.00000000E+00  0.00000000E+00  0.00000000E+00
  0.00000000E+00  0.00000000E+00  0.00000000E+00
  0.00000000E+00  0.00000000E+00  0.00000000E+00
  0.00000000E+00  0.00000000E+00  0.00000000E+00
  0.00000000E+00  0.00000000E+00  0.00000000E+00
  0.00000000E+00  0.00000000E+00  0.00000000E+00
  0.00000000E+00  0.00000000E+00  0.00000000E+00
  0.00000000E+00  0.00000000E+00  0.00000000E+00
  0.00000000E+00  0.00000000E+00  0.00000000E+00
  0.00000000E+00  0.00000000E+00  0.00000000E+00
  0.00000000E+00  0.00000000E+00  0.00000000E+00
  0.00000000E+00  0.00000000E+00  0.00000000E+00
  0.00000000E+00  0.00000000E+00  0.00000000E+00
  0.00000000E+00  0.00000000E+00  0.00000000E+00
  0.00000000E+00  0.00000000E+00  0.00000000E+00
  0.00000000E+00  0.00000000E+00  0.00000000E+00
  0.00000000E+00  0.00000000E+00  0.00000000E+00
  0.00000000E+00  0.00000000E+00  0.00000000E+00
  0.00000000E+00  0.00000000E+00  0.00000000E+00
  0.00000000E+00  0.00000000E+00  0.00000000E+00
  0.00000000E+00  0.00000000E+00  0.00000000E+00
  0.00000000E+00  0.00000000E+00  0.00000000E+00
