Au  C  O                                
   1.0000000000000000     
     9.1191997043428241    0.0000000000000000    0.0000000000000000
     0.0000000000000000    8.1565040299547604    0.0000000000000000
     0.0000000000000000    0.0000000000000000   29.9999966577582597
   Au   C    O 
    30     2     2
Direct
  0.0122733005749409  0.2633174387574724  0.1633750905056643
  0.9171844246086330  0.5136866870973467  0.0949554183247258
  0.9165045750845440  0.0114544672885474  0.0950398199259800
  0.8167578370334467  0.7627386904312887  0.0257881423816624
  0.8165056472713763  0.2627309788832916  0.0253204377551145
  0.8188817347292698  0.0117985426105261  0.1875047826787344
  0.8146432988302308  0.5135601006432263  0.1869418522779401
  0.7133782737329442  0.7623916016150328  0.1225264363333368
  0.7174237767743016  0.2624821282637996  0.1215745478492637
  0.6228502961423916  0.0142347594999528  0.0587922454867477
  0.6232806315951188  0.5110158566150576  0.0586743319180476
  0.6136201547622082  0.7626770443185422  0.2149033837041742
  0.6195473736795702  0.2597125071927437  0.2108782527272922
  0.5116662071152702  0.7629622458452058  0.0051126713887097
  0.5080427895342462  0.5131827875848179  0.1573638314141460
  0.5094133947297261  0.2625434988634405  0.0035705275981756
  0.2026357536416520  0.0126630463912649  0.1296408587031921
  0.4108236486996461  0.7611016430922410  0.0944922716092356
  0.4116127540500445  0.2626241616236928  0.0939168504359742
  0.3146489894798676  0.0122961420476621  0.0273306970181510
  0.3148655973176747  0.5130414158437487  0.0277356759764571
  0.3122992641276539  0.7622252434518429  0.1874225941865887
  0.3138438243681091  0.2610296006248148  0.1869271084314780
  0.2034821779810786  0.5112642091209328  0.1297459340242254
  0.5082270834672167  0.0105780000513724  0.1561526370053068
  0.1215971833939873  0.7631195488384361  0.0603225496277824
  0.1218200786909122  0.2622636139269222  0.0609302293667280
  0.0130747654146256  0.0135934037146021  0.0047133977444006
  0.0138847704504766  0.5119229260987038  0.0048304453892160
  0.0136522614200303  0.7614907280560520  0.1623698014468451
  0.5891674053057775  0.2957250343856961  0.3231473231942572
  0.6481414369097744  0.7986729973834340  0.2739798081857995
  0.6082593521101261  0.1545610302010593  0.3288757376198265
  0.5700446889621338  0.4369998544493948  0.3175555743658685

  0.00000000E+00  0.00000000E+00  0.00000000E+00
  0.00000000E+00  0.00000000E+00  0.00000000E+00
  0.00000000E+00  0.00000000E+00  0.00000000E+00
  0.00000000E+00  0.00000000E+00  0.00000000E+00
  0.00000000E+00  0.00000000E+00  0.00000000E+00
  0.00000000E+00  0.00000000E+00  0.00000000E+00
  0.00000000E+00  0.00000000E+00  0.00000000E+00
  0.00000000E+00  0.00000000E+00  0.00000000E+00
  0.00000000E+00  0.00000000E+00  0.00000000E+00
  0.00000000E+00  0.00000000E+00  0.00000000E+00
  0.00000000E+00  0.00000000E+00  0.00000000E+00
  0.00000000E+00  0.00000000E+00  0.00000000E+00
  0.00000000E+00  0.00000000E+00  0.00000000E+00
  0.00000000E+00  0.00000000E+00  0.00000000E+00
  0.00000000E+00  0.00000000E+00  0.00000000E+00
  0.00000000E+00  0.00000000E+00  0.00000000E+00
  0.00000000E+00  0.00000000E+00  0.00000000E+00
  0.00000000E+00  0.00000000E+00  0.00000000E+00
  0.00000000E+00  0.00000000E+00  0.00000000E+00
  0.00000000E+00  0.00000000E+00  0.00000000E+00
  0.00000000E+00  0.00000000E+00  0.00000000E+00
  0.00000000E+00  0.00000000E+00  0.00000000E+00
  0.00000000E+00  0.00000000E+00  0.00000000E+00
  0.00000000E+00  0.00000000E+00  0.00000000E+00
  0.00000000E+00  0.00000000E+00  0.00000000E+00
  0.00000000E+00  0.00000000E+00  0.00000000E+00
  0.00000000E+00  0.00000000E+00  0.00000000E+00
  0.00000000E+00  0.00000000E+00  0.00000000E+00
  0.00000000E+00  0.00000000E+00  0.00000000E+00
  0.00000000E+00  0.00000000E+00  0.00000000E+00
  0.00000000E+00  0.00000000E+00  0.00000000E+00
  0.00000000E+00  0.00000000E+00  0.00000000E+00
  0.00000000E+00  0.00000000E+00  0.00000000E+00
  0.00000000E+00  0.00000000E+00  0.00000000E+00
