Au  C  O 
 1.0000000000000000
    21.1099996385500575    0.0000000000000000    0.0000000000000000
     0.0000000000000000    4.9730092748510684    0.0000000000000000
     0.0000000000000000    0.0000000000000000   29.9999904563337267
 Au  C   O  
  47   2   2
Cartesian
  0.1000000000000000  2.5859600000000000  0.1227300000000000
 11.8607899999999997  0.9609900000000000  2.6650299999999998
 11.8598099999999995  3.4586399999999999  4.1254600000000003
 11.8679900000000007  0.9278900000000000 29.7381799999999998
 11.9002599999999994  3.3702500000000000  7.2532800000000002
 11.8590099999999996  0.8804999999999999  8.4580300000000008
 14.2190700000000003  0.1554600000000000  4.2065200000000003
 14.2206499999999991  5.0568400000000002  1.1402300000000001
 14.2447599999999994  2.5681099999999999 29.7974700000000006
 14.2403800000000000  2.6270899999999999  2.7620700000000000
 11.8439800000000002  0.9873499999999999  5.6134700000000004
 14.2010699999999996  5.0596100000000002  7.1485200000000004
 16.5240900000000011  4.2636200000000004  5.8053900000000001
 16.5579999999999998  1.7245200000000001  1.2922400000000001
 16.5893200000000007  4.2872700000000004  2.8777200000000001
 16.6382900000000014  4.1803299999999997 29.9454799999999999
 16.6022099999999995  1.7590500000000000  4.4644599999999999
 18.8525500000000008  3.4224600000000001  4.4872899999999998
 18.9263499999999993  3.3671899999999999  1.4977499999999999
 18.9575700000000005  0.8732700000000000  0.1216200000000000
 18.9939999999999998  0.9050500000000000  3.2079800000000001
 14.2555899999999998  2.5698599999999998  5.8603399999999999
  9.4839800000000007  1.7874099999999999  1.0607000000000000
 11.8402499999999993  3.4224299999999999  1.0598600000000000
  9.4768399999999993  4.2627199999999998  2.6582499999999998
  0.1100500000000000  0.1000000000000000  1.6253700000000000
  0.1112400000000000  2.5894499999999998  3.2779799999999999
  2.3442500000000002  4.2776899999999998  3.1873399999999998
  2.3595999999999999  4.3109099999999998  0.1000000000000000
  2.3956000000000000  1.8171500000000000  1.4824700000000000
  2.4906700000000002  1.7613099999999999  4.4722099999999996
  4.7351099999999997  3.4407700000000001  4.4489299999999998
  4.6753400000000003  0.9997900000000000 29.9220700000000015
  4.7455699999999998  0.9083700000000000  2.8554800000000000
  9.5361600000000006  4.2605500000000003  5.6447200000000004
  4.8336199999999998  0.9298800000000000  5.7763000000000000
  4.7576599999999996  3.4581800000000000  1.2710600000000001
  7.1656800000000000  0.1463000000000000  7.1044900000000002
  7.0953499999999998  2.5839500000000002  2.7455400000000001
  7.0739700000000001  2.6207799999999999 29.8000399999999992
  7.0974800000000000  0.1373100000000000  1.1383000000000001
  7.1372400000000003  0.0851000000000000  4.1863299999999999
  9.4507100000000008  4.3194499999999998  8.5835000000000008
  9.4359900000000003  1.8453299999999999  7.2219100000000003
  9.4535900000000002  4.2822899999999997 29.7388900000000014
  9.4792500000000004  1.7795300000000001  4.1346800000000004
  7.0868200000000003  2.6441300000000001  5.8132000000000001
  8.9862400000000004  4.0919999999999996 10.3305100000000003
 12.2223000000000006  1.7125999999999999 12.3645999999999994
 11.3408999999999995  2.4615999999999998 12.1483000000000008
 13.1049000000000007  0.9651999999999999 12.5813000000000006
