Au  C  O                                
   1.0000000000000000     
     9.1191997043428241    0.0000000000000000    0.0000000000000000
     0.0000000000000000    8.1565040299547604    0.0000000000000000
     0.0000000000000000    0.0000000000000000   29.9999966577582597
   Au   C    O 
    30     2     2
Direct
  0.0122169509608639  0.2657161933392614  0.1631125199705073
  0.9169569932104940  0.5161824620762414  0.0947230665020757
  0.9163136163589048  0.0138776018026894  0.0948355784793394
  0.8165315034183316  0.7649624035406862  0.0256736631935315
  0.8161491245637894  0.2650315479031107  0.0251386747106014
  0.8187398503831089  0.0140746106098273  0.1872964538813614
  0.8145876495397837  0.5158005762660833  0.1867058454997427
  0.7132578066862701  0.7647115823867506  0.1223815234004160
  0.7171373048183393  0.2648580006003779  0.1213809631779252
  0.6224555915655888  0.0167435015568998  0.0585844332314139
  0.6229886819534366  0.5133228399960301  0.0584335308488185
  0.6135282012938078  0.7649988943249071  0.2147828704978772
  0.6194612120602949  0.2620420570001589  0.2106987162656699
  0.5115744723065617  0.7655783117879738  0.0048520449936237
  0.5078647730140348  0.5156358866170435  0.1571703369855713
  0.5091046996035268  0.2651462956641322  0.0032828501588100
  0.2025850822674120  0.0151481281399189  0.1294024139514149
  0.4107919716567290  0.7634949801013954  0.0942784524439293
  0.4113643678898797  0.2652577164933163  0.0936495112879242
  0.3143152985609826  0.0146232930089607  0.0270156675779939
  0.3145569164706708  0.5157234716081869  0.0273897392227490
  0.3121737526026436  0.7647482939733076  0.1872076091997130
  0.3139289254253996  0.2633911678302909  0.1867013997931419
  0.2032983813600895  0.5137100579567003  0.1295330402287369
  0.5082264950548993  0.0128706394305956  0.1560056153747646
  0.1215155120668897  0.7655406185395803  0.0600864543486665
  0.1216641175803146  0.2645944781700534  0.0606608160596897
  0.0126350782113499  0.0159745700336872  0.0044813011483940
  0.0136797243076697  0.5141867494784061  0.0046000219067617
  0.0136532608356856  0.7639375153948841  0.1621700035641105
  0.5895071318493211  0.2958011605213488  0.3231979623838446
  0.6471997740741161  0.7984698833658451  0.2740018804228871
  0.6075893242684781  0.1543290809926193  0.3286693983789236
  0.5714584980948956  0.4374126942702385  0.3178829230722379

  0.00000000E+00  0.00000000E+00  0.00000000E+00
  0.00000000E+00  0.00000000E+00  0.00000000E+00
  0.00000000E+00  0.00000000E+00  0.00000000E+00
  0.00000000E+00  0.00000000E+00  0.00000000E+00
  0.00000000E+00  0.00000000E+00  0.00000000E+00
  0.00000000E+00  0.00000000E+00  0.00000000E+00
  0.00000000E+00  0.00000000E+00  0.00000000E+00
  0.00000000E+00  0.00000000E+00  0.00000000E+00
  0.00000000E+00  0.00000000E+00  0.00000000E+00
  0.00000000E+00  0.00000000E+00  0.00000000E+00
  0.00000000E+00  0.00000000E+00  0.00000000E+00
  0.00000000E+00  0.00000000E+00  0.00000000E+00
  0.00000000E+00  0.00000000E+00  0.00000000E+00
  0.00000000E+00  0.00000000E+00  0.00000000E+00
  0.00000000E+00  0.00000000E+00  0.00000000E+00
  0.00000000E+00  0.00000000E+00  0.00000000E+00
  0.00000000E+00  0.00000000E+00  0.00000000E+00
  0.00000000E+00  0.00000000E+00  0.00000000E+00
  0.00000000E+00  0.00000000E+00  0.00000000E+00
  0.00000000E+00  0.00000000E+00  0.00000000E+00
  0.00000000E+00  0.00000000E+00  0.00000000E+00
  0.00000000E+00  0.00000000E+00  0.00000000E+00
  0.00000000E+00  0.00000000E+00  0.00000000E+00
  0.00000000E+00  0.00000000E+00  0.00000000E+00
  0.00000000E+00  0.00000000E+00  0.00000000E+00
  0.00000000E+00  0.00000000E+00  0.00000000E+00
  0.00000000E+00  0.00000000E+00  0.00000000E+00
  0.00000000E+00  0.00000000E+00  0.00000000E+00
  0.00000000E+00  0.00000000E+00  0.00000000E+00
  0.00000000E+00  0.00000000E+00  0.00000000E+00
  0.00000000E+00  0.00000000E+00  0.00000000E+00
  0.00000000E+00  0.00000000E+00  0.00000000E+00
  0.00000000E+00  0.00000000E+00  0.00000000E+00
  0.00000000E+00  0.00000000E+00  0.00000000E+00
