Au  C  O                                
   1.0000000000000000     
     9.1191997043428241    0.0000000000000000    0.0000000000000000
     0.0000000000000000    8.1565040299547604    0.0000000000000000
     0.0000000000000000    0.0000000000000000   29.9999966577582597
   Au   C    O 
    30     2     2
Direct
  0.0122629261908994  0.2650868324265004  0.1614900170831107
  0.9132333914543699  0.5184458019264105  0.0947869435423866
  0.9133100987327630  0.0186145130062253  0.0948366211206074
  0.8157223805338134  0.7693832892127376  0.0283354100082584
  0.8157223182022254  0.2695730445714209  0.0283416542641406
  0.8190288117291519  0.0144115870322151  0.1869765203350489
  0.8194503876520435  0.5140391937715229  0.1867723361246381
  0.7075274019639605  0.7668446093709430  0.1270038209371754
  0.7071919830936082  0.2664938850580041  0.1271685684847021
  0.6215449113565217  0.0190978019089813  0.0596608186231467
  0.6211528059074359  0.5190382799307186  0.0598449163722303
  0.6217028856661080  0.7657548197098016  0.2184417317740260
  0.6212713204966822  0.2650363800188891  0.2184412916292088
  0.5118990370966054  0.7695112057008187  0.0041288574646700
  0.5064672965327817  0.5144331903633079  0.1601848951514969
  0.5117797774160425  0.2698386713419668  0.0041366601010385
  0.2038411232141665  0.0158018944652824  0.1281659720416738
  0.4123043045309132  0.7671037101738439  0.0940540795626352
  0.4123976819944015  0.2661043921237662  0.0940457495148633
  0.3149900526604431  0.0190143702998920  0.0271818775947326
  0.3148478286049909  0.5192158757895426  0.0272865920331165
  0.3094063433952183  0.7644504277154542  0.1857942860447577
  0.3097614546713011  0.2649704057216104  0.1856910516648898
  0.2035900999801406  0.5159444888103119  0.1281050492072058
  0.5065979068638005  0.0137797908404008  0.1605558066206518
  0.1214759418500221  0.7689417298271252  0.0601655084199307
  0.1216281195795844  0.2688679883969973  0.0600940568592649
  0.0113125604699426  0.0195391003983991  0.0043514204560089
  0.0113851457101331  0.5196067259884101  0.0043235628276221
  0.0119499990363221  0.7656315154912281  0.1616022136469919
  0.6039082625524563  0.2262427154028646  0.2830549524988816
  0.6110421855670681  0.7071522825451771  0.2821695677411372
  0.5969887210518698  0.1809789152670385  0.3194253344594637
  0.6122311632080204  0.6434184901123879  0.3165211690776146

  0.00000000E+00  0.00000000E+00  0.00000000E+00
  0.00000000E+00  0.00000000E+00  0.00000000E+00
  0.00000000E+00  0.00000000E+00  0.00000000E+00
  0.00000000E+00  0.00000000E+00  0.00000000E+00
  0.00000000E+00  0.00000000E+00  0.00000000E+00
  0.00000000E+00  0.00000000E+00  0.00000000E+00
  0.00000000E+00  0.00000000E+00  0.00000000E+00
  0.00000000E+00  0.00000000E+00  0.00000000E+00
  0.00000000E+00  0.00000000E+00  0.00000000E+00
  0.00000000E+00  0.00000000E+00  0.00000000E+00
  0.00000000E+00  0.00000000E+00  0.00000000E+00
  0.00000000E+00  0.00000000E+00  0.00000000E+00
  0.00000000E+00  0.00000000E+00  0.00000000E+00
  0.00000000E+00  0.00000000E+00  0.00000000E+00
  0.00000000E+00  0.00000000E+00  0.00000000E+00
  0.00000000E+00  0.00000000E+00  0.00000000E+00
  0.00000000E+00  0.00000000E+00  0.00000000E+00
  0.00000000E+00  0.00000000E+00  0.00000000E+00
  0.00000000E+00  0.00000000E+00  0.00000000E+00
  0.00000000E+00  0.00000000E+00  0.00000000E+00
  0.00000000E+00  0.00000000E+00  0.00000000E+00
  0.00000000E+00  0.00000000E+00  0.00000000E+00
  0.00000000E+00  0.00000000E+00  0.00000000E+00
  0.00000000E+00  0.00000000E+00  0.00000000E+00
  0.00000000E+00  0.00000000E+00  0.00000000E+00
  0.00000000E+00  0.00000000E+00  0.00000000E+00
  0.00000000E+00  0.00000000E+00  0.00000000E+00
  0.00000000E+00  0.00000000E+00  0.00000000E+00
  0.00000000E+00  0.00000000E+00  0.00000000E+00
  0.00000000E+00  0.00000000E+00  0.00000000E+00
  0.00000000E+00  0.00000000E+00  0.00000000E+00
  0.00000000E+00  0.00000000E+00  0.00000000E+00
  0.00000000E+00  0.00000000E+00  0.00000000E+00
  0.00000000E+00  0.00000000E+00  0.00000000E+00
