Au  C  O 
 1.0000000000000000
    21.1099996385500575    0.0000000000000000    0.0000000000000000
     0.0000000000000000    4.9730092748510684    0.0000000000000000
     0.0000000000000000    0.0000000000000000   29.9999904563337267
 Au  C   O  
  47   2   2
Cartesian
  0.1000000000000000  2.5881021099999999  0.1222579800000000
 11.8435073800000001  0.9344283400000000  2.8224615499999999
 11.8401069600000000  3.4192626900000000  4.2456015400000000
 11.8518879600000009  0.8956178500000000 29.8538286699999986
 11.8821086299999994  3.4217111600000001  7.3148566800000001
 12.0064287899999993  0.9413747800000000  8.6309801799999999
 14.1956542599999995  0.1078254000000000  4.2741220699999998
 14.2040771699999997  5.0431186700000001  1.2238182500000001
 14.2080343599999992  2.5605131600000002 29.8787857400000014
 14.2205386399999991  2.5910920900000001  2.8422368400000000
 11.8425180399999999  0.9579414200000000  5.8317860499999998
 14.2697997599999997  4.9741030700000000  7.1834989299999998
 16.5538366299999993  4.2067036099999999  5.8111040799999998
 16.5406353099999990  1.7230680500000000  1.3181885300000000
 16.5694691899999995  4.2632438500000003  2.8959029400000000
 16.6077221799999997  4.1855157900000002 29.9632722600000001
 16.6095243400000001  1.7084712000000000  4.4889018700000003
 18.8573914100000017  3.3939208299999999  4.4569393300000000
 18.9089039200000002  3.3680631499999998  1.4747302200000001
 18.9332975400000016  0.8791407999999999  0.1104827100000000
 18.9887367500000011  0.8819695500000000  3.1863395500000000
 14.2776526199999996  2.4987759500000002  5.9248122700000003
  9.4829442000000004  1.7835766200000001  1.1776534000000001
 11.8237946399999991  3.3957952499999999  1.1734133099999999
  9.4673526700000004  4.2420289899999997  2.8210527800000000
  0.1035124000000000  0.1011200200000000  1.5984742900000000
  0.1075822800000000  2.5855177100000000  3.2313863100000000
  2.3351044000000001  4.2873187799999997  3.1767350699999999
  2.3770113300000002  4.2966197399999997  0.1000000000000000
  2.4078162900000000  1.8064803100000000  1.4639800500000000
  2.4726591000000000  1.7776191699999999  4.4477649499999998
  4.7139657399999999  3.4694136599999998  4.4903411699999998
  4.7075188600000004  0.9878033000000001 29.9507418299999983
  4.7500308599999999  0.9120418500000000  2.8883758300000002
  9.4881405300000008  4.2253831499999999  5.8291801100000002
  4.7735895900000003  0.9744325500000000  5.8121944599999997
  4.7688104700000000  3.4519953000000001  1.3081640200000000
  7.0627330900000000  0.2125580100000000  7.1835872700000003
  7.0907699300000004  2.5898736000000002  2.8418128399999998
  7.1011069999999998  2.6210796599999999 29.8758475200000007
  7.1052340000000003  0.1381347100000000  1.2227591600000001
  7.1216531500000002  0.1000000000000000  4.2767805799999996
  9.3227544699999996  4.2403567400000002  8.6248763900000007
  9.4561031300000007  1.7593260500000001  7.3129913599999998
  9.4542978800000004  4.2844168299999996 29.8520253900000014
  9.4751238600000001  1.7562826000000000  4.2485715199999996
  7.0552942900000000  2.6846657100000000  5.9260470800000000
  8.9660179099999997  4.0907058000000003 10.5423249299999995
 12.3664129500000008  1.0607992399999999 10.5499035400000007
  8.6177856199999994  4.0461691300000000 11.6419615699999994
 12.7235246899999996  1.0837791400000001 11.6473933800000005
