Au  C  O                                
   1.0000000000000000     
     9.1191997043428241    0.0000000000000000    0.0000000000000000
     0.0000000000000000    8.1565040299547604    0.0000000000000000
     0.0000000000000000    0.0000000000000000   29.9999966577582597
   Au   C    O 
    30     2     2
Direct
  0.0114556552668423  0.2636974426387599  0.1609612114707343
  0.9127901255562838  0.5152173193555943  0.0944461550433112
  0.9128444334073353  0.0151451619536655  0.0944536965531216
  0.8156225776390791  0.7658582917945227  0.0281469057067242
  0.8154311905964629  0.2658855486399141  0.0282028901609571
  0.8189928880622129  0.0132674221467959  0.1865839898762156
  0.8192320373232129  0.5135816300182587  0.1865221422959909
  0.7066746323736015  0.7644878644691957  0.1268689638369992
  0.7066052138224364  0.2642331869607958  0.1269025103616517
  0.6208482227069136  0.0154195917022252  0.0593732425293871
  0.6207680955227270  0.5155565690767879  0.0593966230091711
  0.6213403209261138  0.7644252742708516  0.2180589978372410
  0.6216360946337470  0.2643894157892294  0.2179449044785386
  0.5119030096885672  0.7657884561149914  0.0036073883982782
  0.5056876582284381  0.5134647472111465  0.1599335198166985
  0.5117642041310045  0.2658874388901841  0.0036488408847633
  0.2034071988022063  0.0139597220618006  0.1275985967714291
  0.4121383485508333  0.7644043248107791  0.0935299409857683
  0.4122538194013672  0.2639797283786834  0.0935651830266445
  0.3148989734144451  0.0153428989046844  0.0267028435590536
  0.3148314227528363  0.5154207293489032  0.0267044179364158
  0.3088342271283510  0.7634759246121269  0.1852525789931999
  0.3087706822637373  0.2635371609026090  0.1852098145495384
  0.2032820645084500  0.5140397932527343  0.1275913406804059
  0.5059486268463839  0.0133234125441378  0.1602529282169095
  0.1213755646029249  0.7652176221795504  0.0595660938580480
  0.1215499249350383  0.2653778451942306  0.0596734639973269
  0.0110668006092190  0.0161360027089988  0.0039401877759275
  0.0108813088497511  0.5155400688740461  0.0038824265662849
  0.0116490987245857  0.7639134808582133  0.1610089728705310
  0.6086763304958057  0.2471566447898918  0.2830924221141571
  0.6079252659041783  0.7331129829613009  0.2828850026624341
  0.6070594022749038  0.2282930405792828  0.3212016165343503
  0.6057385013414872  0.6960665106946381  0.3200055154912190

  0.00000000E+00  0.00000000E+00  0.00000000E+00
  0.00000000E+00  0.00000000E+00  0.00000000E+00
  0.00000000E+00  0.00000000E+00  0.00000000E+00
  0.00000000E+00  0.00000000E+00  0.00000000E+00
  0.00000000E+00  0.00000000E+00  0.00000000E+00
  0.00000000E+00  0.00000000E+00  0.00000000E+00
  0.00000000E+00  0.00000000E+00  0.00000000E+00
  0.00000000E+00  0.00000000E+00  0.00000000E+00
  0.00000000E+00  0.00000000E+00  0.00000000E+00
  0.00000000E+00  0.00000000E+00  0.00000000E+00
  0.00000000E+00  0.00000000E+00  0.00000000E+00
  0.00000000E+00  0.00000000E+00  0.00000000E+00
  0.00000000E+00  0.00000000E+00  0.00000000E+00
  0.00000000E+00  0.00000000E+00  0.00000000E+00
  0.00000000E+00  0.00000000E+00  0.00000000E+00
  0.00000000E+00  0.00000000E+00  0.00000000E+00
  0.00000000E+00  0.00000000E+00  0.00000000E+00
  0.00000000E+00  0.00000000E+00  0.00000000E+00
  0.00000000E+00  0.00000000E+00  0.00000000E+00
  0.00000000E+00  0.00000000E+00  0.00000000E+00
  0.00000000E+00  0.00000000E+00  0.00000000E+00
  0.00000000E+00  0.00000000E+00  0.00000000E+00
  0.00000000E+00  0.00000000E+00  0.00000000E+00
  0.00000000E+00  0.00000000E+00  0.00000000E+00
  0.00000000E+00  0.00000000E+00  0.00000000E+00
  0.00000000E+00  0.00000000E+00  0.00000000E+00
  0.00000000E+00  0.00000000E+00  0.00000000E+00
  0.00000000E+00  0.00000000E+00  0.00000000E+00
  0.00000000E+00  0.00000000E+00  0.00000000E+00
  0.00000000E+00  0.00000000E+00  0.00000000E+00
  0.00000000E+00  0.00000000E+00  0.00000000E+00
  0.00000000E+00  0.00000000E+00  0.00000000E+00
  0.00000000E+00  0.00000000E+00  0.00000000E+00
  0.00000000E+00  0.00000000E+00  0.00000000E+00
