Au  C  O                                
   1.0000000000000000     
    21.1099996385500575    0.0000000000000000    0.0000000000000000
     0.0000000000000000    4.9730092748510684    0.0000000000000000
     0.0000000000000000    0.0000000000000000   29.9999904563337267
   Au   C    O 
    47     2     2
Direct
  0.0045989935890221  0.5221648575981627  0.0038976250073654
  0.5613233418833909  0.1923779335711055  0.0889960645046644
  0.5612185947303064  0.6944457673766695  0.1376875924936773
  0.5619603552887183  0.1861130091679391  0.9914004869692437
  0.5636089630273616  0.6753801818360575  0.2421804218543102
  0.5615857217935228  0.1744319964246410  0.2820293411248495
  0.6731757100182078  0.0293166196665456  0.1402432337664401
  0.6734223339476482  0.0172702449355017  0.0381054332919569
  0.6745740086487655  0.5173185696430185  0.9934266409430026
  0.6742083193205992  0.5269882308071594  0.0921498201197831
  0.5606858376859907  0.1976512298752183  0.1871986541669604
  0.6725814491618065  0.0159096281093800  0.2382247742154399
  0.7825506760845747  0.8562780453173922  0.1933257071688222
  0.7842595290255598  0.3470017301449361  0.0428217298329896
  0.7855885817152055  0.8615760659294982  0.0957504878394751
  0.7880993270623136  0.8414703030779039  0.9980319824860293
  0.7862525226154575  0.3525645110624690  0.1486947337702359
  0.8928817648376453  0.6872375731440868  0.1494391558451272
  0.8963883790142094  0.6774621664727255  0.0497654295464990
  0.8981557333327533  0.1761779055681838  0.0038956483470305
  0.8996521187845771  0.1810120000547832  0.1067991195711511
  0.6750648231644724  0.5151492624168617  0.1953384942099649
  0.4491472129524652  0.3587589565049908  0.0355784028437104
  0.5606597995050659  0.6880063146116621  0.0355213476780978
  0.4483926404060058  0.8562913921904605  0.0888486057148623
  0.0052433401140547  0.0214133605159549  0.0541212144474912
  0.0051077575969009  0.5212778214921617  0.1090200657843045
  0.1109215883803624  0.8597232851289902  0.1061019937153476
  0.1116944901459370  0.8685573774094540  0.0030925938652709
  0.1133958040489355  0.3669135944238617  0.0491584005727234
  0.1177116702762226  0.3534110246160452  0.1489092846516048
  0.2238610118503370  0.6911616334091190  0.1484300584390441
  0.2215109349254704  0.2018955810038230  0.9972237206653352
  0.2244625189919844  0.1815689662999007  0.0950819922891034
  0.4514989970272382  0.8566408941061368  0.1885992346061655
  0.2286181434994965  0.1866589983744533  0.1926101106350208
  0.2251421244886079  0.6957548795275414  0.0421612645103675
  0.3389602736842169  0.0294409359978488  0.2369729091469736
  0.3355720871278851  0.5182818815093446  0.0916273837727297
  0.3351405781857946  0.5262152649004844  0.9934369957352465
  0.3359822559778419  0.0267823858132974  0.0380614423444583
  0.3376151117032080  0.0153082675400751  0.1396858795805831
  0.4476164898383634  0.8702843037625837  0.2865412526993292
  0.4466139012516339  0.3724918890161240  0.2411935989183372
  0.4475682883607479  0.8605894361822194  0.9914472322208537
  0.4483751963569588  0.3569918716185060  0.1381047150285669
  0.3354093405170648  0.5312543200987100  0.1939247496613798
  0.4213494706953017  0.8364958129873766  0.3441393273594217
  0.5754870479251388  0.3510354664626082  0.4112670593109574
  0.5346651420103793  0.5106465725928749  0.4077484416675430
  0.6163628780318416  0.1914267513125254  0.4147654911750425

  0.00000000E+00  0.00000000E+00  0.00000000E+00
  0.00000000E+00  0.00000000E+00  0.00000000E+00
  0.00000000E+00  0.00000000E+00  0.00000000E+00
  0.00000000E+00  0.00000000E+00  0.00000000E+00
  0.00000000E+00  0.00000000E+00  0.00000000E+00
  0.00000000E+00  0.00000000E+00  0.00000000E+00
  0.00000000E+00  0.00000000E+00  0.00000000E+00
  0.00000000E+00  0.00000000E+00  0.00000000E+00
  0.00000000E+00  0.00000000E+00  0.00000000E+00
  0.00000000E+00  0.00000000E+00  0.00000000E+00
  0.00000000E+00  0.00000000E+00  0.00000000E+00
  0.00000000E+00  0.00000000E+00  0.00000000E+00
  0.00000000E+00  0.00000000E+00  0.00000000E+00
  0.00000000E+00  0.00000000E+00  0.00000000E+00
  0.00000000E+00  0.00000000E+00  0.00000000E+00
  0.00000000E+00  0.00000000E+00  0.00000000E+00
  0.00000000E+00  0.00000000E+00  0.00000000E+00
  0.00000000E+00  0.00000000E+00  0.00000000E+00
  0.00000000E+00  0.00000000E+00  0.00000000E+00
  0.00000000E+00  0.00000000E+00  0.00000000E+00
  0.00000000E+00  0.00000000E+00  0.00000000E+00
  0.00000000E+00  0.00000000E+00  0.00000000E+00
  0.00000000E+00  0.00000000E+00  0.00000000E+00
  0.00000000E+00  0.00000000E+00  0.00000000E+00
  0.00000000E+00  0.00000000E+00  0.00000000E+00
  0.00000000E+00  0.00000000E+00  0.00000000E+00
  0.00000000E+00  0.00000000E+00  0.00000000E+00
  0.00000000E+00  0.00000000E+00  0.00000000E+00
  0.00000000E+00  0.00000000E+00  0.00000000E+00
  0.00000000E+00  0.00000000E+00  0.00000000E+00
  0.00000000E+00  0.00000000E+00  0.00000000E+00
  0.00000000E+00  0.00000000E+00  0.00000000E+00
  0.00000000E+00  0.00000000E+00  0.00000000E+00
  0.00000000E+00  0.00000000E+00  0.00000000E+00
  0.00000000E+00  0.00000000E+00  0.00000000E+00
  0.00000000E+00  0.00000000E+00  0.00000000E+00
  0.00000000E+00  0.00000000E+00  0.00000000E+00
  0.00000000E+00  0.00000000E+00  0.00000000E+00
  0.00000000E+00  0.00000000E+00  0.00000000E+00
  0.00000000E+00  0.00000000E+00  0.00000000E+00
  0.00000000E+00  0.00000000E+00  0.00000000E+00
  0.00000000E+00  0.00000000E+00  0.00000000E+00
  0.00000000E+00  0.00000000E+00  0.00000000E+00
  0.00000000E+00  0.00000000E+00  0.00000000E+00
  0.00000000E+00  0.00000000E+00  0.00000000E+00
  0.00000000E+00  0.00000000E+00  0.00000000E+00
  0.00000000E+00  0.00000000E+00  0.00000000E+00
  0.00000000E+00  0.00000000E+00  0.00000000E+00
  0.00000000E+00  0.00000000E+00  0.00000000E+00
  0.00000000E+00  0.00000000E+00  0.00000000E+00
  0.00000000E+00  0.00000000E+00  0.00000000E+00
