Au  C  O                                
   1.0000000000000000     
    21.1099996385500575    0.0000000000000000    0.0000000000000000
     0.0000000000000000    4.9730092748510684    0.0000000000000000
     0.0000000000000000    0.0000000000000000   29.9999904563337267
   Au   C    O 
    47     2     2
Direct
  0.0046944699948260  0.5196046926932554  0.0054245005485225
  0.5605513313531828  0.1928550185364515  0.0934484587620260
  0.5602997772944225  0.6930736966541151  0.1412463961979427
  0.5608042194851138  0.1838008106701912  0.9942611279536080
  0.5636968152901117  0.6927468043396149  0.2435842259183018
  0.5690991299553585  0.1948045591347112  0.2878959671436430
  0.6717350478556322  0.0296031498603947  0.1419363043226173
  0.6721534247881117  0.0194949015217684  0.0400896676890214
  0.6724902845613504  0.5197767497629581  0.9952050535545985
  0.6727866691844485  0.5283072401405350  0.0940513608081232
  0.5606172600112722  0.1972092008352188  0.1942967047639982
  0.6759213819064777  0.0109832132305658  0.2390375513664681
  0.7837547995836065  0.8563453526616869  0.1932015795548556
  0.7827790949274969  0.3519549882791582  0.0433637456833878
  0.7842059413383096  0.8643675632596519  0.0960621160295729
  0.7861066036990910  0.8468441805477938  0.9983803803880289
  0.7857133161888088  0.3534826885407494  0.1489915467294528
  0.8928356751251636  0.6889048709058645  0.1485050905151579
  0.8950757881905527  0.6788873768347556  0.0493978315872745
  0.8967948822509199  0.1774201218519010  0.0043600169773071
  0.8986348351549381  0.1837883381184448  0.1063923391841427
  0.6757972967655109  0.5123942595497346  0.1968694218963281
  0.4489052199208556  0.3595324480683225  0.0385849859272873
  0.5597112815685905  0.6866705293179557  0.0384838400676719
  0.4484348667378278  0.8543231269959294  0.0934439402669946
  0.0046123348414293  0.0195756743782354  0.0546448754284327
  0.0051556370411035  0.5200161963412353  0.1089602989641302
  0.1109138809969392  0.8610156555319842  0.1068504997753745
  0.1122326609953670  0.8636808816384216  0.0043768182507472
  0.1140345921099727  0.3624091699449077  0.0499282002935630
  0.1174619734888795  0.3560717987359042  0.1492026255727689
  0.2240836206542507  0.6932459911192130  0.1498457362169673
  0.2225363128113995  0.1969061162000436  0.9987752685250367
  0.2252254030039743  0.1801043410764988  0.0966809539636789
  0.4496188978303468  0.8475152385227530  0.1945839189068559
  0.2271189585576235  0.1910242956601518  0.1939726835987319
  0.2258975179700747  0.6920435775300807  0.0439074189922861
  0.3357930288725655  0.0355815337090706  0.2398578207890969
  0.3361643228670051  0.5177217035028153  0.0943974792791756
  0.3359437564662770  0.5252697113267486  0.9954814367534097
  0.3365569826656609  0.0256176849343986  0.0404289423903762
  0.3379393786851240  0.0164669313236577  0.1424411285409275
  0.4432823169073508  0.8509358674426399  0.2883150874487351
  0.4480454945351245  0.3503441180560410  0.2441504198341866
  0.4475961462111031  0.8621768501578503  0.9943118103303975
  0.4488919822204357  0.3539161473365998  0.1413946581968017
  0.3348393778610617  0.5340863230008388  0.1975829928108068
  0.4426986026158601  0.7737533587221900  0.3522961181909591
  0.5865963624858440  0.2250828820522157  0.3518370153672372
  0.4464924234122208  0.7154271295017808  0.3894538953719499
  0.6036807903063784  0.2352686552348122  0.3883460596374001

  0.00000000E+00  0.00000000E+00  0.00000000E+00
  0.00000000E+00  0.00000000E+00  0.00000000E+00
  0.00000000E+00  0.00000000E+00  0.00000000E+00
  0.00000000E+00  0.00000000E+00  0.00000000E+00
  0.00000000E+00  0.00000000E+00  0.00000000E+00
  0.00000000E+00  0.00000000E+00  0.00000000E+00
  0.00000000E+00  0.00000000E+00  0.00000000E+00
  0.00000000E+00  0.00000000E+00  0.00000000E+00
  0.00000000E+00  0.00000000E+00  0.00000000E+00
  0.00000000E+00  0.00000000E+00  0.00000000E+00
  0.00000000E+00  0.00000000E+00  0.00000000E+00
  0.00000000E+00  0.00000000E+00  0.00000000E+00
  0.00000000E+00  0.00000000E+00  0.00000000E+00
  0.00000000E+00  0.00000000E+00  0.00000000E+00
  0.00000000E+00  0.00000000E+00  0.00000000E+00
  0.00000000E+00  0.00000000E+00  0.00000000E+00
  0.00000000E+00  0.00000000E+00  0.00000000E+00
  0.00000000E+00  0.00000000E+00  0.00000000E+00
  0.00000000E+00  0.00000000E+00  0.00000000E+00
  0.00000000E+00  0.00000000E+00  0.00000000E+00
  0.00000000E+00  0.00000000E+00  0.00000000E+00
  0.00000000E+00  0.00000000E+00  0.00000000E+00
  0.00000000E+00  0.00000000E+00  0.00000000E+00
  0.00000000E+00  0.00000000E+00  0.00000000E+00
  0.00000000E+00  0.00000000E+00  0.00000000E+00
  0.00000000E+00  0.00000000E+00  0.00000000E+00
  0.00000000E+00  0.00000000E+00  0.00000000E+00
  0.00000000E+00  0.00000000E+00  0.00000000E+00
  0.00000000E+00  0.00000000E+00  0.00000000E+00
  0.00000000E+00  0.00000000E+00  0.00000000E+00
  0.00000000E+00  0.00000000E+00  0.00000000E+00
  0.00000000E+00  0.00000000E+00  0.00000000E+00
  0.00000000E+00  0.00000000E+00  0.00000000E+00
  0.00000000E+00  0.00000000E+00  0.00000000E+00
  0.00000000E+00  0.00000000E+00  0.00000000E+00
  0.00000000E+00  0.00000000E+00  0.00000000E+00
  0.00000000E+00  0.00000000E+00  0.00000000E+00
  0.00000000E+00  0.00000000E+00  0.00000000E+00
  0.00000000E+00  0.00000000E+00  0.00000000E+00
  0.00000000E+00  0.00000000E+00  0.00000000E+00
  0.00000000E+00  0.00000000E+00  0.00000000E+00
  0.00000000E+00  0.00000000E+00  0.00000000E+00
  0.00000000E+00  0.00000000E+00  0.00000000E+00
  0.00000000E+00  0.00000000E+00  0.00000000E+00
  0.00000000E+00  0.00000000E+00  0.00000000E+00
  0.00000000E+00  0.00000000E+00  0.00000000E+00
  0.00000000E+00  0.00000000E+00  0.00000000E+00
  0.00000000E+00  0.00000000E+00  0.00000000E+00
  0.00000000E+00  0.00000000E+00  0.00000000E+00
  0.00000000E+00  0.00000000E+00  0.00000000E+00
  0.00000000E+00  0.00000000E+00  0.00000000E+00
