Au  C  O                                
   1.0000000000000000     
    21.1099996385500575    0.0000000000000000    0.0000000000000000
     0.0000000000000000    4.9730092748510684    0.0000000000000000
     0.0000000000000000    0.0000000000000000   29.9999904563337267
   Au   C    O 
    47     2     2
Direct
  0.0059572954908721  0.5197943310732486  0.0035789585727084
  0.5612197493730291  0.1920411868761614  0.0893125074586966
  0.5607522080987460  0.6928668924751478  0.1380897303793951
  0.5622080362644154  0.1849891198043662  0.9913351737749104
  0.5645245948584359  0.6748986879548764  0.2413034345463024
  0.5642424200524513  0.1763521968364888  0.2815780289096413
  0.6734856718629668  0.0250216840694990  0.1395996264958941
  0.6736698539709117  0.0177899794269619  0.0382010075348233
  0.6745697396524313  0.5179648836505518  0.9934150112789243
  0.6741979016741115  0.5246559075069029  0.0916333101062556
  0.5608790043532035  0.1939076915264641  0.1871761664867800
  0.6738207401343762  0.0109115643380332  0.2371054795082693
  0.7836448855244181  0.8517893658024549  0.1924649170357157
  0.7848457765677002  0.3480716889667310  0.0421509644163899
  0.7861518625025185  0.8597945265663525  0.0949810301710911
  0.7883960888128411  0.8436070738373322  0.9975454850014215
  0.7870868181844400  0.3482302810485072  0.1479497832878201
  0.8933503215294366  0.6854360037684106  0.1482172427576567
  0.8970898201835016  0.6770237744225939  0.0486638606896119
  0.8986995735657380  0.1762535334911287  0.0029691079660201
  0.9003887879439475  0.1798010599289285  0.1056850894438625
  0.6759520630337186  0.5108465089912460  0.1941807345837764
  0.4496686189673791  0.3620238899685880  0.0361395749107988
  0.5608935504446158  0.6877461812968400  0.0358410916699243
  0.4484820101617664  0.8560708289857393  0.0909906433000639
  0.0061033882982875  0.0198732346914275  0.0533571378673193
  0.0057996789894069  0.5208589691174571  0.1079791838455869
  0.1120890956180252  0.8584316162487590  0.1055985242802726
  0.1133743459852547  0.8651434266539164  0.0030865640975909
  0.1147259094301429  0.3642125678122350  0.0489202505216252
  0.1180240616868224  0.3529341682021037  0.1482152268397699
  0.2248181994405657  0.6907749880588470  0.1489587936895283
  0.2229945350184288  0.1999148837427281  0.9976297620052922
  0.2258731561179435  0.1802976975899966  0.0957239128764275
  0.4507847263266184  0.8488317667559244  0.1925646688846947
  0.2278340563944813  0.1872655059452807  0.1931076325490089
  0.2266335587409171  0.6943540952553239  0.0428917159202246
  0.3373936584277508  0.0304286372384387  0.2386316563189482
  0.3365173338429035  0.5179323358987291  0.0929359541475483
  0.3360496519294259  0.5276928599339410  0.9940800320023752
  0.3372082078961603  0.0279761461191412  0.0387678134708889
  0.3384105546868978  0.0151710746496488  0.1412110739851447
  0.4468527718700406  0.8592701374574958  0.2875539005448007
  0.4474254203467132  0.3563866667851603  0.2422603598608638
  0.4485009806551709  0.8646130471838607  0.9923355103518530
  0.4487173950192002  0.3552514800699033  0.1391198099105353
  0.3353763707993284  0.5309206692743909  0.1961895997611160
  0.4436822022160384  0.7780485138406029  0.3516135025526874
  0.5826095421069218  0.2820654941011811  0.4031855603726470
  0.4469636880830166  0.7231518803016348  0.3888746981709433
  0.6206796271190383  0.1981719139621153  0.4264635313844069

  0.00000000E+00  0.00000000E+00  0.00000000E+00
  0.00000000E+00  0.00000000E+00  0.00000000E+00
  0.00000000E+00  0.00000000E+00  0.00000000E+00
  0.00000000E+00  0.00000000E+00  0.00000000E+00
  0.00000000E+00  0.00000000E+00  0.00000000E+00
  0.00000000E+00  0.00000000E+00  0.00000000E+00
  0.00000000E+00  0.00000000E+00  0.00000000E+00
  0.00000000E+00  0.00000000E+00  0.00000000E+00
  0.00000000E+00  0.00000000E+00  0.00000000E+00
  0.00000000E+00  0.00000000E+00  0.00000000E+00
  0.00000000E+00  0.00000000E+00  0.00000000E+00
  0.00000000E+00  0.00000000E+00  0.00000000E+00
  0.00000000E+00  0.00000000E+00  0.00000000E+00
  0.00000000E+00  0.00000000E+00  0.00000000E+00
  0.00000000E+00  0.00000000E+00  0.00000000E+00
  0.00000000E+00  0.00000000E+00  0.00000000E+00
  0.00000000E+00  0.00000000E+00  0.00000000E+00
  0.00000000E+00  0.00000000E+00  0.00000000E+00
  0.00000000E+00  0.00000000E+00  0.00000000E+00
  0.00000000E+00  0.00000000E+00  0.00000000E+00
  0.00000000E+00  0.00000000E+00  0.00000000E+00
  0.00000000E+00  0.00000000E+00  0.00000000E+00
  0.00000000E+00  0.00000000E+00  0.00000000E+00
  0.00000000E+00  0.00000000E+00  0.00000000E+00
  0.00000000E+00  0.00000000E+00  0.00000000E+00
  0.00000000E+00  0.00000000E+00  0.00000000E+00
  0.00000000E+00  0.00000000E+00  0.00000000E+00
  0.00000000E+00  0.00000000E+00  0.00000000E+00
  0.00000000E+00  0.00000000E+00  0.00000000E+00
  0.00000000E+00  0.00000000E+00  0.00000000E+00
  0.00000000E+00  0.00000000E+00  0.00000000E+00
  0.00000000E+00  0.00000000E+00  0.00000000E+00
  0.00000000E+00  0.00000000E+00  0.00000000E+00
  0.00000000E+00  0.00000000E+00  0.00000000E+00
  0.00000000E+00  0.00000000E+00  0.00000000E+00
  0.00000000E+00  0.00000000E+00  0.00000000E+00
  0.00000000E+00  0.00000000E+00  0.00000000E+00
  0.00000000E+00  0.00000000E+00  0.00000000E+00
  0.00000000E+00  0.00000000E+00  0.00000000E+00
  0.00000000E+00  0.00000000E+00  0.00000000E+00
  0.00000000E+00  0.00000000E+00  0.00000000E+00
  0.00000000E+00  0.00000000E+00  0.00000000E+00
  0.00000000E+00  0.00000000E+00  0.00000000E+00
  0.00000000E+00  0.00000000E+00  0.00000000E+00
  0.00000000E+00  0.00000000E+00  0.00000000E+00
  0.00000000E+00  0.00000000E+00  0.00000000E+00
  0.00000000E+00  0.00000000E+00  0.00000000E+00
  0.00000000E+00  0.00000000E+00  0.00000000E+00
  0.00000000E+00  0.00000000E+00  0.00000000E+00
  0.00000000E+00  0.00000000E+00  0.00000000E+00
  0.00000000E+00  0.00000000E+00  0.00000000E+00
