Au  C  O                                
   1.0000000000000000     
    21.1099996385500575    0.0000000000000000    0.0000000000000000
     0.0000000000000000    4.9730092748510684    0.0000000000000000
     0.0000000000000000    0.0000000000000000   29.9999904563337267
   Au   C    O 
    47     2     2
Direct
  0.0047928699860662  0.5211393706310781  0.0043414097780302
  0.5608233579322549  0.1892562385879117  0.0938857064655503
  0.5604566913321199  0.6898475614893349  0.1415323829754723
  0.5615846033800422  0.1809150396326529  0.9948108802431046
  0.5626803268122288  0.6915718186365974  0.2437715425993610
  0.5688449579502574  0.1932878274668195  0.2878770843575925
  0.6720260807668904  0.0236742199406228  0.1424188717293424
  0.6728408151802626  0.0159024491689186  0.0406808104126028
  0.6732276204457378  0.5164436976374974  0.9958439117308842
  0.6732299699271052  0.5228781255777725  0.0946615312596137
  0.5605927997625029  0.1952825999609659  0.1944533344893956
  0.6756621873006694  0.0035451946603946  0.2394343940907624
  0.7838189201832328  0.8487886697693688  0.1936748932963009
  0.7835316659189125  0.3486717590278878  0.0439152501386019
  0.7845651782252389  0.8592982544650841  0.0964698614764312
  0.7866398154904364  0.8438532339956633  0.9987254036654264
  0.7862341293398006  0.3464037811099394  0.1494472049322242
  0.8928615320365569  0.6843443950470879  0.1485397861077214
  0.8956587309405074  0.6782531645834431  0.0492166958111249
  0.8969344843939872  0.1776959239388304  0.0038083491075953
  0.8992422662668835  0.1792838326035848  0.1062472997034959
  0.6759717118951808  0.5056271911926750  0.1974083082064752
  0.4494072951241992  0.3577708998242841  0.0388888550433827
  0.5602873534901078  0.6838207991296522  0.0389337391352068
  0.4485190617821940  0.8528964890259452  0.0936843497533775
  0.0048416226544959  0.0210914901782575  0.0535710961848974
  0.0049124868404915  0.5206138872689459  0.1081172027623883
  0.1104839486462165  0.8619005694952941  0.1062386249680108
  0.1125308019848877  0.8644992477511397  0.0037268617802260
  0.1139878595618417  0.3638556688047516  0.0491847062761938
  0.1170020055516282  0.3567120005528390  0.1486197033023086
  0.2234618989941530  0.6948558350584789  0.1493642395020914
  0.2228550817557215  0.1981538512660287  0.9983273227704380
  0.2249167549135473  0.1815432740454940  0.0962414056683404
  0.4492133742768904  0.8492231138486890  0.1944570056520019
  0.2265357716924911  0.1927052820819322  0.1935323713418484
  0.2260160197024055  0.6933561161289158  0.0434378987494542
  0.3350841060634331  0.0399162403250433  0.2393971904075837
  0.3360260915758509  0.5185246163712925  0.0942734956863187
  0.3364672052819295  0.5254879256826873  0.9955198575641567
  0.3367067641259271  0.0260922181175851  0.0403095513686873
  0.3374972293551556  0.0179439827705421  0.1420925201530890
  0.4419844836914462  0.8542394321632162  0.2881010218234533
  0.4476151009168791  0.3537851667839496  0.2439874675287058
  0.4481459794625026  0.8604938400801330  0.9947269039478984
  0.4487653838796733  0.3533528555544532  0.1414233685589146
  0.3341674300427618  0.5376040113342193  0.1972176570747624
  0.4334924478539549  0.7997566068593044  0.3524083565759258
  0.5863769602488905  0.2249998234351906  0.3517742335807274
  0.4275148325813516  0.7630416927221848  0.3901685136472959
  0.6036724316734392  0.2355179774026468  0.3882348742654569

  0.00000000E+00  0.00000000E+00  0.00000000E+00
  0.00000000E+00  0.00000000E+00  0.00000000E+00
  0.00000000E+00  0.00000000E+00  0.00000000E+00
  0.00000000E+00  0.00000000E+00  0.00000000E+00
  0.00000000E+00  0.00000000E+00  0.00000000E+00
  0.00000000E+00  0.00000000E+00  0.00000000E+00
  0.00000000E+00  0.00000000E+00  0.00000000E+00
  0.00000000E+00  0.00000000E+00  0.00000000E+00
  0.00000000E+00  0.00000000E+00  0.00000000E+00
  0.00000000E+00  0.00000000E+00  0.00000000E+00
  0.00000000E+00  0.00000000E+00  0.00000000E+00
  0.00000000E+00  0.00000000E+00  0.00000000E+00
  0.00000000E+00  0.00000000E+00  0.00000000E+00
  0.00000000E+00  0.00000000E+00  0.00000000E+00
  0.00000000E+00  0.00000000E+00  0.00000000E+00
  0.00000000E+00  0.00000000E+00  0.00000000E+00
  0.00000000E+00  0.00000000E+00  0.00000000E+00
  0.00000000E+00  0.00000000E+00  0.00000000E+00
  0.00000000E+00  0.00000000E+00  0.00000000E+00
  0.00000000E+00  0.00000000E+00  0.00000000E+00
  0.00000000E+00  0.00000000E+00  0.00000000E+00
  0.00000000E+00  0.00000000E+00  0.00000000E+00
  0.00000000E+00  0.00000000E+00  0.00000000E+00
  0.00000000E+00  0.00000000E+00  0.00000000E+00
  0.00000000E+00  0.00000000E+00  0.00000000E+00
  0.00000000E+00  0.00000000E+00  0.00000000E+00
  0.00000000E+00  0.00000000E+00  0.00000000E+00
  0.00000000E+00  0.00000000E+00  0.00000000E+00
  0.00000000E+00  0.00000000E+00  0.00000000E+00
  0.00000000E+00  0.00000000E+00  0.00000000E+00
  0.00000000E+00  0.00000000E+00  0.00000000E+00
  0.00000000E+00  0.00000000E+00  0.00000000E+00
  0.00000000E+00  0.00000000E+00  0.00000000E+00
  0.00000000E+00  0.00000000E+00  0.00000000E+00
  0.00000000E+00  0.00000000E+00  0.00000000E+00
  0.00000000E+00  0.00000000E+00  0.00000000E+00
  0.00000000E+00  0.00000000E+00  0.00000000E+00
  0.00000000E+00  0.00000000E+00  0.00000000E+00
  0.00000000E+00  0.00000000E+00  0.00000000E+00
  0.00000000E+00  0.00000000E+00  0.00000000E+00
  0.00000000E+00  0.00000000E+00  0.00000000E+00
  0.00000000E+00  0.00000000E+00  0.00000000E+00
  0.00000000E+00  0.00000000E+00  0.00000000E+00
  0.00000000E+00  0.00000000E+00  0.00000000E+00
  0.00000000E+00  0.00000000E+00  0.00000000E+00
  0.00000000E+00  0.00000000E+00  0.00000000E+00
  0.00000000E+00  0.00000000E+00  0.00000000E+00
  0.00000000E+00  0.00000000E+00  0.00000000E+00
  0.00000000E+00  0.00000000E+00  0.00000000E+00
  0.00000000E+00  0.00000000E+00  0.00000000E+00
  0.00000000E+00  0.00000000E+00  0.00000000E+00
