Au  C  O 
 1.0000000000000000
     9.1191997043428241    0.0000000000000000    0.0000000000000000
     0.0000000000000000    8.1565040299547604    0.0000000000000000
     0.0000000000000000    0.0000000000000000   29.9999966577582597
 Au  C   O  
  30   2   2
Cartesian
  0.1000000000000000  2.1391228299999998  4.8207600099999999
  8.3227370500000006  4.1782500000000002  2.8234808899999999
  8.3226982799999991  0.1000000000000000  2.8234848399999999
  7.4398419899999997  6.2173937700000002  0.8334146800000000
  7.4398419899999997  2.1391062299999999  0.8334146800000000
  7.4625599200000003  0.1000000000000000  5.5861513100000000
  7.4625709899999997  4.1782500000000002  5.5861444999999996
  6.4380507099999997  6.2173796699999997  3.8004110999999998
  6.4380507099999997  2.1391203299999999  3.8004110999999998
  5.6643777699999998  0.1000000000000000  1.7720963300000001
  5.6645490499999998  4.1782500000000002  1.7721948400000000
  5.6607990800000003  6.2173739499999998  6.5396931800000004
  5.6607990800000003  2.1391260499999998  6.5396931800000004
  4.6725888500000003  6.2173565300000000  0.1000000000000000
  4.6085042400000003  4.1782500000000002  4.7959379699999998
  4.6725888500000003  2.1391434700000000  0.1000000000000000
  1.8515765200000001  0.1000000000000000  3.8135739200000001
  3.7573835000000000  6.2173783900000004  2.7961430300000001
  3.7573835000000000  2.1391216100000001  2.7961430300000001
  2.8745147599999998  0.1000000000000000  0.7894409400000000
  2.8745218000000001  4.1782500000000002  0.7894550900000000
  2.8107913199999999  6.2173781100000003  5.5460657700000002
  2.8107913199999999  2.1391218900000002  5.5460657700000002
  1.8515817299999999  4.1782500000000002  3.8135937599999998
  4.6085034100000000  0.1000000000000000  4.7959566899999997
  1.1092175900000001  6.2173789299999997  1.7752455700000001
  1.1092175900000001  2.1391210699999998  1.7752455700000001
  0.1024490500000000  0.1000000000000000  0.1063570900000000
  0.1024282100000000  4.1782500000000002  0.1063707500000000
  0.1000000000000000  6.2173771699999998  4.8207600099999999
  5.5427546599999999  2.1391232800000002  8.5009510099999996
  5.5427546599999999  6.2173767199999999  8.5009510099999996
  5.5332119100000003  2.1391387900000001  9.6545592199999994
  5.5332119100000003  6.2173612100000000  9.6545592199999994
