Au  C  O                                
   1.0000000000000000     
    21.1099996385500575    0.0000000000000000    0.0000000000000000
     0.0000000000000000    4.9730092748510684    0.0000000000000000
     0.0000000000000000    0.0000000000000000   29.9999904563337267
   Au   C    O 
    47     2     2
Direct
  0.0049841061624859  0.5219028642988979  0.0042640453255788
  0.5609365880381202  0.1935729831843098  0.0907454933751581
  0.5605169407053192  0.6947296273657033  0.1399156304708511
  0.5620002940919289  0.1850378890498795  0.9919076631731277
  0.5644064011362278  0.6786212900617103  0.2453023740869318
  0.5669430176657900  0.1806632122416570  0.2894366908760282
  0.6718814789612231  0.0294830860283439  0.1409416272527440
  0.6730396903059046  0.0193893743919996  0.0390393155875329
  0.6739598526332650  0.5191169609933524  0.9939499652951792
  0.6732010634636981  0.5277770224920659  0.0924542129085935
  0.5604522324245405  0.1964916448747699  0.1915483490393276
  0.6724041441848484  0.0154457199050062  0.2388797011909701
  0.7819017853012840  0.8553687549735149  0.1932967466561443
  0.7840716161410778  0.3502548680753966  0.0427967305206546
  0.7848798168889609  0.8628540396670120  0.0957918655798097
  0.7876534227517614  0.8455432749252042  0.9982431587341966
  0.7855176931583839  0.3515311195864787  0.1486012812182354
  0.8918918308610950  0.6867549779703852  0.1490233756582283
  0.8962036272656602  0.6790543723355101  0.0495282658243509
  0.8979897755703651  0.1779860461582104  0.0036958851548819
  0.8994491147959650  0.1812295446001219  0.1064953687798694
  0.6744544032816484  0.5153681938036389  0.1954675962567953
  0.4494742346685120  0.3610376191785425  0.0366239396765145
  0.5605501052641884  0.6879982007365487  0.0367458014785626
  0.4488284236805149  0.8556713969022682  0.0915581872764828
  0.0053016428715044  0.0221050394112501  0.0540621128135472
  0.0047569414817796  0.5239874364881563  0.1087568316795205
  0.1114433161004086  0.8599675731095895  0.1061051720501876
  0.1126250449766005  0.8656790822136700  0.0037377787964213
  0.1140332802809809  0.3650916311207179  0.0493320598459362
  0.1176176657835721  0.3548670501664996  0.1484626312085915
  0.2247886991102678  0.6915336202101225  0.1488070758374877
  0.2225045390804975  0.1999752819004157  0.9979342405069894
  0.2255224768855459  0.1813018510093384  0.0958706731478082
  0.4513593391169257  0.8487047345728398  0.1933775665030864
  0.2280621773769592  0.1884237029734827  0.1929768016489489
  0.2262443538631299  0.6945471841942584  0.0431035348411241
  0.3378495225072885  0.0340656164420878  0.2384529900194449
  0.3367560452880048  0.5177679532274859  0.0930866999293147
  0.3357231759808323  0.5275490775655094  0.9943755561508585
  0.3370079316740835  0.0276210175690690  0.0389018016699275
  0.3385869165064004  0.0159239150881775  0.1411608760500718
  0.4458879744920257  0.8600978400272693  0.2879582839756141
  0.4489031577401854  0.3558829951972645  0.2432562930236180
  0.4484854823956965  0.8633733676235751  0.9927748018279685
  0.4494451552172828  0.3550197021915488  0.1399592205576330
  0.3359127803445611  0.5330650177511576  0.1960485354605055
  0.4431771973961957  0.7795727909050012  0.3519063064001217
  0.5810922845160348  0.2364906256084465  0.3778195477783182
  0.4473164303907943  0.7234995396004872  0.3891223822797586
  0.6153206491190221  0.1861504374302519  0.4063482814830211

  0.00000000E+00  0.00000000E+00  0.00000000E+00
  0.00000000E+00  0.00000000E+00  0.00000000E+00
  0.00000000E+00  0.00000000E+00  0.00000000E+00
  0.00000000E+00  0.00000000E+00  0.00000000E+00
  0.00000000E+00  0.00000000E+00  0.00000000E+00
  0.00000000E+00  0.00000000E+00  0.00000000E+00
  0.00000000E+00  0.00000000E+00  0.00000000E+00
  0.00000000E+00  0.00000000E+00  0.00000000E+00
  0.00000000E+00  0.00000000E+00  0.00000000E+00
  0.00000000E+00  0.00000000E+00  0.00000000E+00
  0.00000000E+00  0.00000000E+00  0.00000000E+00
  0.00000000E+00  0.00000000E+00  0.00000000E+00
  0.00000000E+00  0.00000000E+00  0.00000000E+00
  0.00000000E+00  0.00000000E+00  0.00000000E+00
  0.00000000E+00  0.00000000E+00  0.00000000E+00
  0.00000000E+00  0.00000000E+00  0.00000000E+00
  0.00000000E+00  0.00000000E+00  0.00000000E+00
  0.00000000E+00  0.00000000E+00  0.00000000E+00
  0.00000000E+00  0.00000000E+00  0.00000000E+00
  0.00000000E+00  0.00000000E+00  0.00000000E+00
  0.00000000E+00  0.00000000E+00  0.00000000E+00
  0.00000000E+00  0.00000000E+00  0.00000000E+00
  0.00000000E+00  0.00000000E+00  0.00000000E+00
  0.00000000E+00  0.00000000E+00  0.00000000E+00
  0.00000000E+00  0.00000000E+00  0.00000000E+00
  0.00000000E+00  0.00000000E+00  0.00000000E+00
  0.00000000E+00  0.00000000E+00  0.00000000E+00
  0.00000000E+00  0.00000000E+00  0.00000000E+00
  0.00000000E+00  0.00000000E+00  0.00000000E+00
  0.00000000E+00  0.00000000E+00  0.00000000E+00
  0.00000000E+00  0.00000000E+00  0.00000000E+00
  0.00000000E+00  0.00000000E+00  0.00000000E+00
  0.00000000E+00  0.00000000E+00  0.00000000E+00
  0.00000000E+00  0.00000000E+00  0.00000000E+00
  0.00000000E+00  0.00000000E+00  0.00000000E+00
  0.00000000E+00  0.00000000E+00  0.00000000E+00
  0.00000000E+00  0.00000000E+00  0.00000000E+00
  0.00000000E+00  0.00000000E+00  0.00000000E+00
  0.00000000E+00  0.00000000E+00  0.00000000E+00
  0.00000000E+00  0.00000000E+00  0.00000000E+00
  0.00000000E+00  0.00000000E+00  0.00000000E+00
  0.00000000E+00  0.00000000E+00  0.00000000E+00
  0.00000000E+00  0.00000000E+00  0.00000000E+00
  0.00000000E+00  0.00000000E+00  0.00000000E+00
  0.00000000E+00  0.00000000E+00  0.00000000E+00
  0.00000000E+00  0.00000000E+00  0.00000000E+00
  0.00000000E+00  0.00000000E+00  0.00000000E+00
  0.00000000E+00  0.00000000E+00  0.00000000E+00
  0.00000000E+00  0.00000000E+00  0.00000000E+00
  0.00000000E+00  0.00000000E+00  0.00000000E+00
  0.00000000E+00  0.00000000E+00  0.00000000E+00
