Au  C  O 
 1.0000000000000000
     9.1191997043428241    0.0000000000000000    0.0000000000000000
     0.0000000000000000    8.1565040299547604    0.0000000000000000
     0.0000000000000000    0.0000000000000000   29.9999966577582597
 Au  C   O  
  30   2   2
Cartesian
  0.1000000000000000  2.1586812100000001  4.9082479000000001
  8.3590021700000001  4.2120657899999996  2.8407164699999998
  8.3574605700000006  0.1135478000000000  2.8458665200000000
  7.4499204099999998  6.2404304499999999  0.7664131800000000
  7.4460063900000000  2.1681403700000001  0.7361135900000000
  7.4305169400000004  0.1000000000000000  5.6075985199999998
  7.4426337699999996  4.2167068099999998  5.6102890099999998
  6.5003942800000001  6.2386521600000000  3.6752056000000000
  6.5484973300000000  2.1611761299999999  3.6424732199999998
  5.6909586799999996  0.1391704300000000  1.7567813200000000
  5.6817161000000000  4.1844394800000000  1.7641595600000000
  5.5878603599999996  6.2292518000000001  6.4666707800000003
  5.6484720900000003  2.1602548200000000  6.3206210900000004
  4.6680816800000002  6.2423071800000001  0.1644131200000000
  4.6341995999999996  4.2046003900000004  4.6902228499999996
  4.6480284899999997  2.1648381799999998  0.1000000000000000
  1.8458681600000000  0.1259801200000000  3.8873086899999998
  3.7333824600000001  6.2365341599999997  2.8339751000000000
  3.7491356900000001  2.1543358200000000  2.8114781700000000
  2.8711052600000002  0.1228997900000000  0.8341700800000000
  2.8722405599999998  4.2010832599999999  0.8306707900000000
  2.8543677999999999  6.2327260100000004  5.6155912199999998
  2.8594963999999998  2.1514337000000001  5.6008424999999997
  1.8427052500000001  4.1869351799999999  3.8932084200000001
  4.6369852900000001  0.1038956000000000  4.6977803600000003
  1.1007896900000000  6.2403645299999999  1.8077493000000000
  1.0996201100000000  2.1652511699999999  1.8248477900000000
  0.1254783200000000  0.1342399600000000  0.1375395100000000
  0.1301811800000000  4.1954010300000002  0.1276391400000000
  0.1294948800000000  6.2426828099999998  4.8731783100000001
  5.4449902300000002  2.1181816900000001  9.7694789199999992
  5.7989289099999999  6.1948671199999996  8.2791990099999992
  5.4540561800000003  0.9391009000000000  9.7655159699999992
  5.4361895200000001  3.2974475900000000  9.7790771200000002
